(set-info :source |printed by MathSAT|)
(declare-fun currentvalue_0 () Real)
(declare-fun currentvalue0 () Real)
(declare-fun error_0 () Real)
(declare-fun error0 () Real)
(declare-fun controloutput_0 () Real)
(declare-fun controloutput0 () Real)
(declare-fun controlsignal_0 () Real)
(declare-fun controlsignal0 () Real)
(declare-fun i_0 () Real)
(declare-fun i0 () Real)
(declare-fun currentvalue0_0 () Real)
(define-fun .def_8 () Real (! currentvalue_0 :next |currentvalue0|))
(define-fun .def_10 () Real (! error_0 :next |error0|))
(define-fun .def_12 () Real (! controloutput_0 :next |controloutput0|))
(define-fun .def_14 () Real (! controlsignal_0 :next |controlsignal0|))
(define-fun .def_16 () Real (! i_0 :next |i0|))
(define-fun .def_49 () Real (! currentvalue0_0 :next |.xpv.1|))
(define-fun .def_43 () Bool (= .def_16 (to_real 0)))
(define-fun .def_42 () Bool (= .def_8 (to_real 0)))
(define-fun .def_44 () Bool (and .def_42 .def_43))
(define-fun .def_41 () Bool (= .def_14 (to_real 0)))
(define-fun .def_45 () Bool (! (and .def_41 .def_44) :init true))
(define-fun .def_38 () Real (+ .def_8 error0))
(define-fun .def_39 () Bool (= .def_38 (to_real 100)))
(define-fun .def_33 () Real (* (to_real (- 10)) controloutput0))
(define-fun .def_34 () Real (+ error0 .def_33))
(define-fun .def_35 () Bool (= .def_34 (to_real 0)))
(define-fun .def_30 () Bool (= controloutput0 controlsignal0))
(define-fun .def_23 () Real (* (to_real (- 1)) currentvalue0))
(define-fun .def_26 () Real (+ .def_23 controlsignal0))
(define-fun .def_27 () Real (+ .def_8 .def_26))
(define-fun .def_28 () Bool (= .def_27 (to_real 0)))
(define-fun .def_19 () Real (* (to_real (- 1)) i0))
(define-fun .def_20 () Real (+ .def_16 .def_19))
(define-fun .def_21 () Bool (= .def_20 (to_real (- 1))))
(define-fun .def_29 () Bool (and .def_21 .def_28))
(define-fun .def_31 () Bool (and .def_29 .def_30))
(define-fun .def_36 () Bool (and .def_31 .def_35))
(define-fun .def_40 () Bool (! (and .def_36 .def_39) :trans true))
(define-fun .def_57 () Real (* (to_real (- 10)) .def_49))
(define-fun .def_59 () Real (* (to_real 9) .def_8))
(define-fun .def_61 () Real (+ .def_59 .def_57))
(define-fun .def_62 () Bool (= .def_61 (to_real (- 100))))
(define-fun .def_52 () Bool (<= (/ 999 10) .def_49))
(define-fun .def_50 () Bool (<= .def_49 (/ 1001 10)))
(define-fun .def_53 () Bool (and .def_50 .def_52))
(define-fun .def_54 () Bool (not .def_53))
(define-fun .def_47 () Bool (<= (to_real 199) .def_16))
(define-fun .def_55 () Bool (and .def_47 .def_54))
(define-fun .def_63 () Bool (and .def_55 .def_62))
(define-fun .def_65 () Bool (! (not .def_63) :invar-property 0))
(assert true)
